EDGE_WEIGHT_TYPE: EXPLICIT
EDGE_WEIGHT_FORMAT: FULL_MATRIX
DIMENSION: 26
VEHICLES: 1
NODE_COORD_SECTION
1 24 53
2 24 53
3 59 98
4 63 100
5 67 102
6 71 104
7 75 107
8 79 109
9 18 75
10 22 78
11 26 81
12 30 83
13 34 86
14 38 88
15 42 90
16 46 91
17 50 93
18 54 95
19 39 110
20 54 113
21 56 118
22 47 103
23 50 106
24 30 99
25 35 99
26 42 100
EDGE_WEIGHT_SECTION
0.0 0.0 9999999999.0 9999999999.0 9999999999.0 9999999999.0 9999999999.0 9999999999.0 22.804 25.08 28.071 30.594 34.482 37.696 41.146 43.909 47.707 51.614 58.941 67.082 72.45 55.036 59.034 46.39 47.297 50.329 
0.0 0.0 9999999999.0 9999999999.0 9999999999.0 9999999999.0 9999999999.0 9999999999.0 22.804 25.08 28.071 30.594 34.482 37.696 41.146 43.909 47.707 51.614 58.941 67.082 72.45 55.036 59.034 46.39 47.297 50.329 
9999999999.0 9999999999.0 0.0 4.472 8.944 13.416 18.358 22.825 9999999999.0 9999999999.0 9999999999.0 9999999999.0 9999999999.0 9999999999.0 9999999999.0 9999999999.0 9999999999.0 9999999999.0 9999999999.0 9999999999.0 9999999999.0 9999999999.0 9999999999.0 9999999999.0 9999999999.0 9999999999.0 
9999999999.0 9999999999.0 4.472 0.0 4.472 8.944 13.892 18.358 9999999999.0 9999999999.0 9999999999.0 9999999999.0 9999999999.0 9999999999.0 9999999999.0 9999999999.0 9999999999.0 9999999999.0 9999999999.0 9999999999.0 19.313 9999999999.0 9999999999.0 9999999999.0 9999999999.0 9999999999.0 
9999999999.0 9999999999.0 8.944 4.472 0.0 4.472 9.434 13.892 9999999999.0 9999999999.0 9999999999.0 9999999999.0 9999999999.0 9999999999.0 9999999999.0 9999999999.0 9999999999.0 9999999999.0 9999999999.0 17.029 19.416 9999999999.0 9999999999.0 9999999999.0 9999999999.0 9999999999.0 
9999999999.0 9999999999.0 13.416 8.944 4.472 0.0 5.0 9.434 9999999999.0 9999999999.0 9999999999.0 9999999999.0 9999999999.0 9999999999.0 9999999999.0 9999999999.0 9999999999.0 9999999999.0 9999999999.0 19.235 20.518 9999999999.0 9999999999.0 9999999999.0 9999999999.0 9999999999.0 
9999999999.0 9999999999.0 18.358 13.892 9.434 5.0 0.0 4.472 9999999999.0 9999999999.0 9999999999.0 9999999999.0 9999999999.0 9999999999.0 9999999999.0 9999999999.0 9999999999.0 9999999999.0 36.125 21.84 21.954 9999999999.0 9999999999.0 9999999999.0 9999999999.0 9999999999.0 
9999999999.0 9999999999.0 22.825 18.358 13.892 9.434 4.472 0.0 9999999999.0 9999999999.0 9999999999.0 9999999999.0 9999999999.0 9999999999.0 9999999999.0 9999999999.0 9999999999.0 9999999999.0 40.012 25.318 24.698 9999999999.0 29.155 9999999999.0 9999999999.0 9999999999.0 
22.804 22.804 9999999999.0 9999999999.0 9999999999.0 9999999999.0 9999999999.0 9999999999.0 0.0 5.0 10.0 14.422 19.416 23.854 28.302 32.249 36.715 41.183 40.817 52.345 57.385 40.311 44.553 26.833 29.411 34.655 
25.08 25.08 9999999999.0 9999999999.0 9999999999.0 9999999999.0 9999999999.0 9999999999.0 5.0 0.0 5.0 9.434 14.422 18.868 23.324 27.295 31.765 36.235 36.235 47.424 52.498 35.355 39.598 22.472 24.698 29.732 
28.071 28.071 9999999999.0 9999999999.0 9999999999.0 9999999999.0 9999999999.0 9999999999.0 10.0 5.0 0.0 4.472 9.434 13.892 18.358 22.361 26.833 31.305 31.78 42.521 47.634 30.414 34.655 18.439 20.125 24.839 
30.594 30.594 9999999999.0 9999999999.0 9999999999.0 9999999999.0 9999999999.0 9999999999.0 14.422 9.434 4.472 0.0 5.0 9.434 13.892 17.889 22.361 26.833 28.46 38.419 43.6 26.249 30.48 16.0 16.763 20.809 
34.482 34.482 9999999999.0 9999999999.0 9999999999.0 9999999999.0 9999999999.0 9999999999.0 19.416 14.422 9.434 5.0 0.0 4.472 8.944 13.0 17.464 21.932 24.515 33.601 38.833 21.401 25.612 13.601 13.038 16.125 
37.696 37.696 9999999999.0 9999999999.0 9999999999.0 9999999999.0 9999999999.0 9999999999.0 23.854 18.868 13.892 9.434 4.472 0.0 4.472 8.544 13.0 17.464 22.023 29.682 34.986 17.493 21.633 13.601 11.402 12.649 
41.146 41.146 9999999999.0 9999999999.0 9999999999.0 9999999999.0 9999999999.0 9999999999.0 28.302 23.324 18.358 13.892 8.944 4.472 0.0 4.123 8.544 13.0 20.224 25.942 31.305 13.928 17.889 15.0 11.402 10.0 
43.909 43.909 9999999999.0 9999999999.0 9999999999.0 9999999999.0 9999999999.0 9999999999.0 32.249 27.295 22.361 17.889 13.0 8.544 4.123 0.0 4.472 8.944 20.248 23.409 28.792 12.042 15.524 17.889 13.601 9.849 
47.707 47.707 9999999999.0 9999999999.0 9999999999.0 9999999999.0 9999999999.0 9999999999.0 36.715 31.765 26.833 22.361 17.464 13.0 8.544 4.472 0.0 4.472 20.248 20.396 25.71 10.44 13.0 20.881 16.155 10.63 
51.614 51.614 9999999999.0 9999999999.0 9999999999.0 9999999999.0 9999999999.0 9999999999.0 41.183 36.235 31.305 26.833 21.932 17.464 13.0 8.944 4.472 0.0 21.213 18.0 23.087 10.63 11.705 24.331 19.416 13.0 
58.941 58.941 9999999999.0 9999999999.0 9999999999.0 9999999999.0 36.125 40.012 40.817 36.235 31.78 28.46 24.515 22.023 20.224 20.248 20.248 21.213 0.0 15.297 18.788 10.63 11.705 14.213 11.705 10.44 
67.082 67.082 9999999999.0 9999999999.0 17.029 19.235 21.84 25.318 52.345 47.424 42.521 38.419 33.601 29.682 25.942 23.409 20.396 18.0 15.297 0.0 5.385 12.207 8.062 27.785 23.601 17.692 
72.45 72.45 9999999999.0 19.313 19.416 20.518 21.954 24.698 57.385 52.498 47.634 43.6 38.833 34.986 31.305 28.792 25.71 23.087 18.788 5.385 0.0 17.493 13.416 32.202 28.32 22.804 
55.036 55.036 9999999999.0 9999999999.0 9999999999.0 9999999999.0 9999999999.0 9999999999.0 40.311 35.355 30.414 26.249 21.401 17.493 13.928 12.042 10.44 10.63 10.63 12.207 17.493 0.0 4.243 17.464 12.649 5.831 
59.034 59.034 9999999999.0 9999999999.0 9999999999.0 9999999999.0 9999999999.0 29.155 44.553 39.598 34.655 30.48 25.612 21.633 17.889 15.524 13.0 11.705 11.705 8.062 13.416 4.243 0.0 21.19 16.553 10.0 
46.39 46.39 9999999999.0 9999999999.0 9999999999.0 9999999999.0 9999999999.0 9999999999.0 26.833 22.472 18.439 16.0 13.601 13.601 15.0 17.889 20.881 24.331 14.213 27.785 32.202 17.464 21.19 0.0 5.0 12.042 
47.297 47.297 9999999999.0 9999999999.0 9999999999.0 9999999999.0 9999999999.0 9999999999.0 29.411 24.698 20.125 16.763 13.038 11.402 11.402 13.601 16.155 19.416 11.705 23.601 28.32 12.649 16.553 5.0 0.0 7.071 
50.329 50.329 9999999999.0 9999999999.0 9999999999.0 9999999999.0 9999999999.0 9999999999.0 34.655 29.732 24.839 20.809 16.125 12.649 10.0 9.849 10.63 13.0 10.44 17.692 22.804 5.831 10.0 12.042 7.071 0.0 
PRIZE_SECTION
1 0
2 0
3 1000
4 1000
5 1000
6 1000
7 1000
8 1000
9 1000
10 1000
11 1000
12 1000
13 1000
14 1000
15 1000
16 1000
17 1000
18 1000
19 1000
20 1000
21 1000
22 1000
23 1000
24 1000
25 1000
26 1000
DEPOT_SECTION
1
2
EOF